WARNING: for repeatability, setting FPU to use double precision
============================[ Problem Statistics ]=============================
|                                                                             |
|  Number of variables:            50                                         |
|  Number of clauses:             218                                         |
|  Parse time:                   0.00 s                                       |
|                                                                             |
============================[ Search Statistics ]==============================
| Conflicts |          ORIGINAL         |          LEARNT          | Progress |
|           |    Vars  Clauses Literals |    Limit  Clauses Lit/Cl |          |
===============================================================================
===============================================================================
restarts              : 1
conflicts             : 69             (327014 /sec)
decisions             : 78             (0.00 % random) (369668 /sec)
propagations          : 991            (4696682 /sec)
conflict literals     : 234            (18.75 % deleted)
Memory used           : 20.00 MB
CPU time              : 0.000211 s

UNSATISFIABLE
